18
3 0 2 0
3 0 3 0
3 0 4 0
3 0 9 0
3 0 8 0
3 0 5 0
3 0 12 0
3 0 15 0
5 0 13 1 16 0
5 0 14 20 19 0
3 0 21 0
3 0 25 0
3 0 33 0
3 0 30 0
9 0 24 27 11 26 28 31 29 0
3 0 7 0
9 0 34 32 18 35 36 23 17 0
5 0 6 10 22 0
